proyfinal/src/viki/013/experimentInOfficeAgust.take6.output/bff033d0-fca0-4957-9731-108399ed2915.als.out
Reading from standard input... Use '--help' for help.
============================[ Problem Statistics ]=============================
|                                                                             |
|  Number of variables:         87638                                         |
|  Number of clauses:          161767                                         |
|  Parse time:                   0.03 s                                       |
|                                                                             |
============================[ Search Statistics ]==============================
| Conflicts |          ORIGINAL         |          LEARNT          | Progress |
|           |    Vars  Clauses Literals |    Limit  Clauses Lit/Cl |          |
===============================================================================
|       100 |   63740   110079   275278 |    40362      100     21 | 27.269 % |
|       250 |   63714   109971   275031 |    44398      249     57 | 27.299 % |
|       475 |   63694   109971   275031 |    48838      473     59 | 27.321 % |
|       812 |   63674   109809   274651 |    53722      809     68 | 27.344 % |
|      1318 |   63674   109809   274651 |    59094     1315     89 | 27.344 % |
|      2077 |   63674   109809   274651 |    65003     2074    100 | 27.344 % |
|      3216 |   63625   109613   274196 |    71504     3211     88 | 27.400 % |
|      4924 |   63525   109130   273099 |    78654     4540     85 | 27.514 % |
|      7486 |   47232    60250   152750 |    86520     6610     71 | 46.106 % |
===============================================================================
restarts              : 38
conflicts             : 9021           (6584 /sec)
decisions             : 33117          (0.00 % random) (24171 /sec)
propagations          : 14896611       (10872613 /sec)
conflict literals     : 563896         (45.91 % deleted)
Memory used           : 29.20 MB
CPU time              : 1.3701 s

UNSATISFIABLE
